% [ 0-1", "0-2", "1-3", "1-0", "2-3", "3-1", "L-0", "1-L", "L-1", "2-L", "L-2", "3-L]
hp = 55;
num_links = 12;
num_packets = 5;

% f1:0 f2:0 f3:0 f4:0 f5:0 
occupancy = 
[|    18,      32,      -1,      -1,      -1,   %0-1
 |    -1,      -1,      -1,      -1,      23,   %0-2
 |    -1,      32,      -1,      -1,      -1,   %1-3
 |    -1,      -1,      -1,      -1,      23,   %1-0
 |    -1,      -1,      19,      27,      -1,   %2-3
 |    -1,      -1,      -1,      27,      -1,   %3-1
 |    18,      32,      -1,      -1,      -1,   %L-0
 |    18,      -1,      -1,      27,      -1,   %1-L
 |    -1,      -1,      -1,      -1,      23,   %L-1
 |    -1,      -1,      -1,      -1,      23,   %2-L
 |    -1,      -1,      19,      27,      -1,   %L-2
 |    -1,      32,      19,      -1,      -1,   %3-L
|];

% f1:0 f2:0 f3:0 f4:0 f5:0 
deadline = 
[|    55,      55,      -1,      -1,      -1,   %0-1
 |    -1,      -1,      -1,      -1,      55,   %0-2
 |    -1,      55,      -1,      -1,      -1,   %1-3
 |    -1,      -1,      -1,      -1,      55,   %1-0
 |    -1,      -1,      55,      55,      -1,   %2-3
 |    -1,      -1,      -1,      55,      -1,   %3-1
 |    55,      55,      -1,      -1,      -1,   %L-0
 |    55,      -1,      -1,      55,      -1,   %1-L
 |    -1,      -1,      -1,      -1,      55,   %L-1
 |    -1,      -1,      -1,      -1,      55,   %2-L
 |    -1,      -1,      55,      55,      -1,   %L-2
 |    -1,      55,      55,      -1,      -1,   %3-L
|];

% f1:0 f2:0 f3:0 f4:0 f5:0 
min_start = 
[|     0,       0,      -1,      -1,      -1,   %0-1
 |    -1,      -1,      -1,      -1,       0,   %0-2
 |    -1,       0,      -1,      -1,      -1,   %1-3
 |    -1,      -1,      -1,      -1,       0,   %1-0
 |    -1,      -1,       0,       0,      -1,   %2-3
 |    -1,      -1,      -1,       0,      -1,   %3-1
 |     0,       0,      -1,      -1,      -1,   %L-0
 |     0,      -1,      -1,       0,      -1,   %1-L
 |    -1,      -1,      -1,      -1,       0,   %L-1
 |    -1,      -1,      -1,      -1,       0,   %2-L
 |    -1,      -1,       0,       0,      -1,   %L-2
 |    -1,       0,       0,      -1,      -1,   %3-L
|];
